num_offers = 30;
num_halls = 10;
start=[55,84,49,1,63,67,14,65,73,29,50,26,79,26,61,41,34,30,34,4,33,2,14,5,51,66,25,47,4,14];
end=[90,95,74,52,97,76,88,86,77,41,92,33,84,71,93,74,81,63,77,37,42,13,63,100,67,96,43,49,35,62];
price=[1290,252,394,4672,1777,231,3188,1765,455,409,3704,111,385,3669,1161,1487,3530,465,4256,2916,912,1161,1340,4265,464,1600,613,218,2571,1399];
requirement=[275,361,419,596,673,538,975,554,249,859,315,262,555,222,302,388,699,375,898,325,579,931,862,688,989,943,527,377,872,410];
capacity=[457,837,415,444,952,772,877,999,344,712];
